COOK = {C1, C2, C3, C4, C5, C6};
DISH = {D1, D2, D3, D4, D5, D6, D7, D8, D9, D10};
no_tasks = 55;
steps = [1..6, 7..11, 12..16, 17..21, 22..27, 28..33, 34..38, 39..43, 44..49, 50..55];
time = array2d(1..55,COOK,[5, 0, 4, 0, 0, 0, 0, 1, 5, 0, 3, 0, 0, 0, 4, 0, 0, 2, 1, 6, 0, 0, 0, 5, 0, 0, 1, 0, 0, 0, 0, 0, 6, 3, 0, 6, 0, 6, 0, 0, 0, 0, 0, 0, 1, 0, 0, 0, 2, 0, 0, 0, 0, 0, 0, 6, 0, 6, 0, 0, 1, 6, 0, 0, 0, 5, 0, 6, 0, 0, 0, 0, 0, 0, 4, 0, 0, 2, 1, 6, 0, 0, 0, 5, 0, 6, 4, 0, 0, 6, 1, 0, 0, 0, 5, 0, 1, 6, 0, 0, 0, 5, 0, 6, 0, 0, 0, 0, 0, 0, 1, 0, 0, 0, 0, 1, 5, 0, 3, 0, 0, 0, 4, 0, 0, 2, 0, 1, 5, 0, 3, 0, 1, 6, 0, 0, 0, 5, 0, 6, 0, 0, 0, 0, 5, 0, 4, 0, 0, 0, 0, 6, 0, 6, 0, 0, 0, 6, 4, 0, 0, 6, 0, 0, 4, 0, 0, 2, 2, 0, 0, 0, 0, 0, 0, 6, 4, 0, 0, 6, 0, 6, 0, 0, 0, 0, 1, 6, 0, 0, 0, 5, 3, 0, 0, 2, 0, 0, 0, 0, 0, 0, 0, 1, 3, 0, 0, 2, 0, 0, 0, 6, 4, 0, 0, 6, 6, 6, 0, 0, 1, 0, 0, 0, 1, 0, 0, 0, 0, 0, 4, 0, 0, 2, 0, 6, 4, 0, 0, 6, 1, 6, 0, 0, 0, 5, 0, 6, 0, 0, 0, 0, 0, 6, 0, 6, 0, 0, 0, 0, 0, 0, 0, 1, 1, 0, 0, 0, 5, 0, 0, 0, 6, 3, 0, 6, 2, 0, 0, 0, 0, 0, 0, 6, 4, 0, 0, 6, 0, 6, 0, 6, 0, 0, 0, 0, 4, 0, 0, 2, 0, 6, 4, 0, 0, 6, 0, 1, 5, 0, 3, 0, 0, 0, 0, 0, 0, 1, 0, 6, 0, 6, 0, 0, 3, 0, 0, 2, 0, 0]);
